(set-logic ALL)
(declare-fun i1 () Int)
(declare-fun it92 () Int)
(declare-fun it93 () Int)
(declare-fun i2 () Int)
(declare-fun i3 () Int)
(declare-fun it94 () Int)
(declare-fun it95 () Int)
(declare-fun i4 () Int)
(declare-fun it96 () Int)
(declare-fun i5 () Int)
(declare-fun i6 () Int)
(declare-fun it97 () Int)
(declare-fun i7 () Int)
(declare-fun it98 () Int)
(declare-fun it99 () Int)
(declare-fun i8 () Int)
(declare-fun i9 () Int)
(declare-fun it100 () Int)
(declare-fun i10 () Int)
(declare-fun it101 () Int)
(declare-fun it102 () Int)
(declare-fun it103 () Int)
(declare-fun it104 () Int)
(declare-fun it105 () Int)
(declare-fun it106 () Int)
(declare-fun it107 () Int)
(declare-fun it108 () Int)
(declare-fun it109 () Int)
(declare-fun it110 () Int)
(declare-fun it111 () Int)
(declare-fun it182 () Int)
(declare-fun it6 () Int)
(declare-fun it184 () Int)
(declare-fun it185 () Int)
(declare-fun it186 () Int)
(declare-fun it187 () Int)
(declare-fun it188 () Int)
(declare-fun it189 () Int)
(declare-fun it190 () Int)
(declare-fun it191 () Int)
(declare-fun it192 () Int)
(declare-fun it193 () Int)
(declare-fun it248 () Int)
(declare-fun it249 () Int)
(declare-fun it250 () Int)
(declare-fun it251 () Int)
(declare-fun it252 () Int)
(declare-fun it253 () Int)
(declare-fun it254 () Int)
(declare-fun it255 () Int)
(declare-fun it256 () Int)
(declare-fun it257 () Int)
(declare-fun it300 () Int)
(declare-fun it301 () Int)
(declare-fun it302 () Int)
(declare-fun it303 () Int)
(declare-fun it304 () Int)
(declare-fun it305 () Int)
(declare-fun it306 () Int)
(declare-fun it307 () Int)
(declare-fun it308 () Int)
(declare-fun it309 () Int)
(declare-fun it626 () Int)
(declare-fun it627 () Int)
(declare-fun it628 () Int)
(declare-fun it629 () Int)
(declare-fun it630 () Int)
(declare-fun it631 () Int)
(declare-fun it632 () Int)
(declare-fun it633 () Int)
(declare-fun it634 () Int)
(declare-fun it635 () Int)
(declare-fun it678 () Int)
(declare-fun it679 () Int)
(declare-fun it680 () Int)
(declare-fun it681 () Int)
(declare-fun it682 () Int)
(declare-fun it683 () Int)
(declare-fun it684 () Int)
(declare-fun it685 () Int)
(declare-fun it686 () Int)
(declare-fun it687 () Int)
(declare-fun it696 () Int)
(declare-fun it697 () Int)
(declare-fun it698 () Int)
(declare-fun it699 () Int)
(declare-fun it700 () Int)
(declare-fun it701 () Int)
(declare-fun it702 () Int)
(declare-fun it703 () Int)
(declare-fun it704 () Int)
(declare-fun it705 () Int)
(declare-fun it714 () Int)
(declare-fun it715 () Int)
(declare-fun it716 () Int)
(declare-fun it717 () Int)
(declare-fun it718 () Int)
(declare-fun it719 () Int)
(declare-fun it720 () Int)
(declare-fun it721 () Int)
(declare-fun it722 () Int)
(declare-fun it723 () Int)
(declare-fun it732 () Int)
(declare-fun it733 () Int)
(declare-fun it734 () Int)
(declare-fun it735 () Int)
(declare-fun it736 () Int)
(declare-fun it737 () Int)
(declare-fun it738 () Int)
(declare-fun it739 () Int)
(declare-fun it740 () Int)
(declare-fun it741 () Int)
(declare-fun it624 () Int)
(assert (= (+ i1 (- 1)) 0))
(assert (= (+ it92 (- 5)) 0))
(assert (= (+ (* i2 (- 1)) it93 (- 4)) 0))
(assert (= (+ it94 (* i3 (- 1))) 0))
(assert (= (+ (* i4 (- 1)) it95) 0))
(assert (= (+ (* i5 (- 1)) it96) 0))
(assert (= (+ it97 (* i6 (- 1))) 0))
(assert (= (+ it98 (* i7 (- 1))) 0))
(assert (= (+ (* i8 (- 1)) it99) 0))
(assert (= (+ it100 (* i9 (- 1))) 0))
(assert (= (+ it101 (* i10 (- 1))) 0))
(assert (and (> (+ it96 (- 2)) 0) (= (+ it92 (- 5)) 0)))
(assert (= (+ it102 (- 6)) 0))
(assert (= (+ it103 (* it93 (- 1)) (- 1)) 0))
(assert (= (+ (* it94 (- 1)) it104) 0))
(assert (= (+ (* it95 (- 1)) it105) 0))
(assert (= (+ (* it96 (- 1)) it106) 0))
(assert (= (+ (* it97 (- 1)) it107) 0))
(assert (= (+ (* it98 (- 1)) it108) 0))
(assert (= (+ it109 (- 1)) 0))
(assert (= (+ (* it100 (- 1)) it110) 0))
(assert (= (+ (* it101 (- 1)) it111) 0))
(assert (and (>= it6 0)
     (> it109 0)
     (> (+ (* it182 (- 1)) (* it6 2) (* it109 (- 1)) 4) 0)
     (> (+ (* it6 2) (* it109 (- 1)) 3) 0)
     (>= (+ (* it102 (- 1)) 6) 0)
     (> (+ it109 1) 0)
     (>= (+ it102 (- 6)) 0)
     (>= (+ (* it6 (- 2)) it109 (- 1)) 0)
     (>= (+ (* it109 (- 1)) it106 (- 1)) 0)
     (>= (+ it182 (- 1)) 0)
     (>= (+ (* it182 (- 1)) (* it109 (- 1)) it106) 0)))
(assert (= (+ it184 (* it102 (- 1))) 0))
(assert (= (+ (* it103 (- 1)) (* it182 (- 6)) it185) 0))
(assert (= (+ it186 (* it182 (- 1)) (* it109 (- 1))) 0))
(assert (= (+ it187 (* it105 (- 1))) 0))
(assert (= (+ it188 (* it106 (- 1))) 0))
(assert (= (+ (* it182 (- 1)) it189 (* it109 (- 1)) 1) 0))
(assert (= (+ it190 (* it108 (- 1))) 0))
(assert (= (+ (* it182 (- 1)) it191 (* it109 (- 1))) 0))
(assert (= (+ it192 (* it110 (- 1))) 0))
(assert (= (+ it193 (* it111 (- 1))) 0))
(assert (and (> (+ it191 (* it188 (- 1)) 1) 0) (= (+ it184 (- 6)) 0)))
(assert (= (+ it248 (- 25)) 0))
(assert (= (+ it249 (* it185 (- 1)) (- 12)) 0))
(assert (= (+ (* it186 (- 1)) it250) 0))
(assert (= (+ it251 (* it187 (- 1))) 0))
(assert (= (+ it252 (* it188 (- 1))) 0))
(assert (= (+ (* it189 (- 1)) it253) 0))
(assert (= (+ it254 (* it190 (- 1))) 0))
(assert (= (+ it255 (* it191 (- 1))) 0))
(assert (= it256 0))
(assert (= (+ it257 (* it193 (- 1))) 0))
(assert (and (= (+ it248 (- 25)) 0) (<= (+ (* it252 (- 1)) it256 2) 0)))
(assert (= (+ it300 (- 27)) 0))
(assert (= (+ (* it249 (- 1)) it301 (- 2)) 0))
(assert (= (+ (* it250 (- 1)) it302) 0))
(assert (= (+ it303 (* it251 (- 1))) 0))
(assert (= (+ it304 (* it252 (- 1))) 0))
(assert (= (+ it305 (* it253 (- 1))) 0))
(assert (= it306 0))
(assert (= (+ it307 (* it255 (- 1))) 0))
(assert (= (+ it308 (* it256 (- 1))) 0))
(assert (= (+ (* it257 (- 1)) it309) 0))
(assert (and (= (+ it300 (- 27)) 0) (<= (+ (* it306 2) (* it304 (- 1)) it308 3) 0)))
(assert (= (+ it626 (- 28)) 0))
(assert (= (+ (* it301 (- 1)) it627 (- 1)) 0))
(assert (= (+ it628 (* it302 (- 1))) 0))
(assert (= (+ (* it303 (- 1)) it629) 0))
(assert (= (+ (* it304 (- 1)) it630) 0))
(assert (= (+ (* it305 (- 1)) it631) 0))
(assert (= (+ (* it306 (- 1)) it632) 0))
(assert (= (+ (* it307 (- 1)) it633) 0))
(assert (= (+ (* it308 (- 1)) it634) 0))
(assert (= (+ it635 (* it309 (- 1))) 0))
(assert (and (= (+ (* it632 2) (* it630 (- 1)) it634 3) 0) (= (+ it626 (- 28)) 0)))
(assert (= (+ it678 (- 33)) 0))
(assert (= (+ it679 (* it627 (- 1)) (- 2)) 0))
(assert (= (+ (* it628 (- 1)) it680) 0))
(assert (= (+ it681 (* it629 (- 1))) 0))
(assert (= (+ it682 (* it630 (- 1))) 0))
(assert (= (+ it683 (* it631 (- 1))) 0))
(assert (= (+ it684 (* it632 (- 1))) 0))
(assert (= (+ it685 (* it633 (- 1))) 0))
(assert (= (+ it686 (* it634 (- 1))) 0))
(assert (= (+ it687 (* it632 (- 2)) (- 1)) 0))
(assert (= (+ it678 (- 33)) 0))
(assert (= (+ it696 (- 27)) 0))
(assert (= (+ (* it679 (- 1)) it697 (- 1)) 0))
(assert (= (+ (* it680 (- 1)) it698) 0))
(assert (= (+ (* it681 (- 1)) it699) 0))
(assert (= (+ it700 (* it682 (- 1))) 0))
(assert (= (+ it701 (* it683 (- 1))) 0))
(assert (= (+ (* it682 (- 1)) it702) 0))
(assert (= (+ it703 (* it685 (- 1))) 0))
(assert (= (+ it704 (* it686 (- 1))) 0))
(assert (= (+ (* it687 (- 1)) it705) 0))
(assert (and (= (+ it696 (- 27)) 0) (> (+ (* it700 (- 1)) it704 (* it702 2) 3) 0)))
(assert (= (+ it714 (- 25)) 0))
(assert (= (+ it715 (* it697 (- 1)) (- 4)) 0))
(assert (= (+ it716 (* it698 (- 1))) 0))
(assert (= (+ (* it704 (- 1)) it717 (- 1)) 0))
(assert (= (+ (* it700 (- 1)) it718) 0))
(assert (= (+ it719 (* it701 (- 1))) 0))
(assert (= (+ it720 (* it702 (- 1))) 0))
(assert (= (+ (* it703 (- 1)) it721) 0))
(assert (= (+ it722 (* it704 (- 1)) (- 1)) 0))
(assert (= (+ it723 (* it705 (- 1))) 0))
(assert (and (= (+ it714 (- 25)) 0) (<= (+ it722 (* it718 (- 1)) 2) 0)))
(assert (= (+ it732 (- 27)) 0))
(assert (= (+ (* it715 (- 1)) it733 (- 2)) 0))
(assert (= (+ (* it716 (- 1)) it734) 0))
(assert (= (+ it735 (* it717 (- 1))) 0))
(assert (= (+ it736 (* it718 (- 1))) 0))
(assert (= (+ (* it719 (- 1)) it737) 0))
(assert (= it738 0))
(assert (= (+ it739 (* it721 (- 1))) 0))
(assert (= (+ (* it722 (- 1)) it740) 0))
(assert (= (+ it741 (* it723 (- 1))) 0))
(assert (let ((a!1 (* (* (exp 2 (+ it624 (- 1))) (+ 0 it738)) (+ 0 (- 2))))
      (a!3 (* (* (exp 2 (+ it624 (- 1))) (+ 0 it738)) (+ 0 2))))
(let ((a!2 (+ a!1
              (* (exp 2 (+ it624 (- 1))) (+ 0 (- 2)))
              (+ 0 it736)
              (+ 0 (* it740 (- 1)))
              (+ 0 (- 1))))
      (a!4 (+ a!3
              (* (exp 2 (+ it624 (- 1))) (+ 0 2))
              (+ 0 (* it736 (- 1)))
              (+ 0 it740)
              (+ 0 1))))
  (and (>= (+ it624 (- 1)) 0)
       (>= (+ (* it732 (- 1)) 27) 0)
       (>= (+ (* it738 (- 2)) it736 (* it740 (- 1)) (- 3)) 0)
       (>= (+ it732 (- 27)) 0)
       (>= a!2 (+ 0 0))
       (>= (+ (* it738 2) (* it736 (- 1)) it740 3) 0)
       (>= a!4 (+ 0 0))))))
(check-sat)
